<number of tasks>
50

<cycle time>
1000

<order strength>
0.896


<task times>
1 106
2 78
3 26
4 185
5 563
6 25
7 70
8 75
9 28
10 429
11 296
12 118
13 40
14 498
15 73
16 268
17 561
18 201
19 63
20 51
21 250
22 276
23 151
24 81
25 40
26 126
27 28
28 586
29 147
30 89
31 29
32 113
33 337
34 266
35 82
36 357
37 179
38 123
39 57
40 422
41 219
42 337
43 328
44 125
45 513
46 287
47 222
48 197
49 220
50 187

<precedence relations>
1,8
1,9
2,4
2,5
2,6
3,4
3,5
3,6
4,7
4,8
4,9
5,7
5,8
5,9
6,7
6,8
6,9
7,10
7,11
8,10
8,11
9,10
9,11
10,12
10,13
10,14
10,15
10,16
11,12
11,13
11,14
11,15
11,16
12,17
12,18
12,19
13,17
13,18
14,17
14,18
14,19
15,17
15,18
15,19
16,17
16,18
17,23
17,33
17,34
18,20
18,21
19,20
19,21
20,22
20,23
20,24
21,22
21,23
21,24
22,26
23,35
24,25
25,27
25,28
26,27
26,28
27,30
27,31
28,29
28,30
28,31
29,32
29,33
29,34
30,32
30,33
30,34
31,32
31,33
31,34
32,35
32,36
33,44
33,47
34,35
34,36
35,37
35,38
36,46
37,39
38,40
38,42
38,43
39,41
39,42
39,43
40,41
40,46
40,47
41,45
41,48
42,44
42,45
42,46
42,47
43,44
43,48
44,49
45,49
45,50
48,50

<end>
